HUN,8,6,481
2,30,0,28,5,21,1,30,4,23,3,27
2,26,3,29,0,24,4,21,1,26,5,23
0,24,2,22,4,26,5,25,3,23,1,28
3,30,2,28,4,25,1,29,0,26,5,25
0,28,1,30,4,25,5,26,2,24,3,21
0,28,4,30,2,21,3,23,5,28,1,21
4,21,0,28,1,28,2,24,5,23,3,21
4,22,5,24,2,21,3,21,0,21,1,21
